rectOffsets =
    [|0,0,3,3|0,0,3,3|0,0,3,4|0,0,4,3|0,0,3,5|0,0,5,3|0,0,3,6|0,0,6,3|0,0,3,7|0,0,7,3|0,0,3,8|0,0,8,3|0,0,3,9|0,0,9,3|0,0,3,10|0,0,10,3|0,0,3,11|0,0,11,3|0,0,3,12|0,0,12,3|0,0,3,13|0,0,13,3|0,0,3,14|0,0,14,3|0,0,3,15|0,0,15,3|0,0,3,18|0,0,18,3|0,0,3,22|0,0,22,3|0,0,3,23|0,0,23,3|0,0,3,24|0,0,24,3|0,0,3,25|0,0,25,3|0,0,3,27|0,0,27,3|0,0,4,3|0,0,3,4|0,0,4,4|0,0,4,4|0,0,4,5|0,0,5,4|0,0,4,6|0,0,6,4|0,0,4,7|0,0,7,4|0,0,4,10|0,0,10,4|0,0,4,11|0,0,11,4|0,0,4,18|0,0,18,4|];

shape = array1d(1..54, [{1}, {2}, {3}, {4}, {5}, {6}, {7}, {8}, {9}, {10},
    {11}, {12}, {13}, {14}, {15}, {16}, {17}, {18}, {19}, {20}, {21},
    {22}, {23}, {24}, {25}, {26}, {27}, {28}, {29}, {30}, {31}, {32},
    {33}, {34}, {35}, {36}, {37}, {38}, {39}, {40}, {41}, {42}, {43},
    {44}, {45}, {46}, {47}, {48}, {49}, {50}, {51}, {52}, {53}, {54}]);

validshapes = array1d(1..27, [{1,2}, {3,4}, {5,6}, {7,8}, {9,10}, {11,12}, {13,14},
    {15,16}, {17,18}, {19,20}, {21,22}, {23,24}, {25,26}, {27,28},
    {29,30}, {31,32}, {33,34}, {35,36}, {37,38}, {39,40}, {41,42},
    {43,44}, {45,46}, {47,48}, {49,50}, {51,52}, {53,54}]);

dx = array1d(1..27, [3, 3, 3, 3, 3, 3, 3, 3, 3, 3, 3, 3, 3, 3, 3, 3, 3, 3,
    3, 4, 4, 4, 4, 4, 4, 4, 4]);

dy = array1d(1..27, [3, 4, 5, 6, 7, 8, 9, 10, 11, 12, 13, 14, 15, 18, 22,
    23, 24, 25, 27, 3, 4, 5, 6, 7, 10, 11, 18]);

w = 32;

n = 27;

o = 54;

